10
0000000000
0000010010
1000010001
0000000100
0000100100
0000000000
1001100100
1000000010
1000001000
0000000000
0000000000
0000000000
0000000000
0000000000
0000000000
0000000000
0000000000
0000000000
0000000000
0000000000
